1
1000
249
498 1
497 1
497 1
497 1
496 1
495 1
495 1
492 1
491 1
491 1
490 1
488 1
485 1
485 1
485 1
485 1
481 1
480 1
480 1
479 1
478 1
474 1
473 1
473 1
472 1
471 1
470 1
469 1
466 1
464 1
462 1
450 1
446 1
446 1
445 1
445 1
444 1
441 1
441 1
439 1
437 1
434 1
430 1
426 1
426 1
422 1
421 1
420 1
419 1
419 1
415 1
414 1
412 1
410 1
407 1
406 1
405 1
404 1
400 1
397 1
395 1
393 1
392 1
392 1
392 1
386 1
385 1
382 1
376 1
372 1
370 1
370 1
367 1
367 1
366 1
366 1
366 1
366 1
366 1
365 1
363 1
363 1
362 1
361 1
359 1
357 1
357 1
357 1
356 1
356 1
355 1
355 1
352 1
351 1
351 1
350 1
350 1
350 1
350 1
347 1
346 1
344 1
342 1
337 1
336 1
333 1
333 1
330 1
329 1
325 1
320 1
318 1
318 1
315 1
314 1
314 1
313 1
312 1
310 1
308 1
308 1
307 1
305 1
303 1
302 1
301 1
299 1
298 1
298 1
298 1
297 1
295 1
294 1
294 1
294 1
293 1
293 1
292 1
291 1
290 1
288 1
287 1
287 1
287 1
283 1
282 1
282 1
281 1
281 1
280 1
278 1
277 1
276 1
276 1
276 1
275 1
275 1
275 1
274 1
274 1
274 1
274 1
273 1
273 1
272 1
272 1
272 1
271 1
271 1
271 1
271 1
271 1
269 1
269 1
269 1
269 1
268 1
267 1
267 1
266 1
265 1
264 1
264 1
264 1
263 1
263 1
263 1
262 1
262 1
262 1
261 1
261 1
260 1
260 1
260 1
259 1
259 1
259 1
259 1
259 1
259 1
258 1
258 1
258 1
258 1
258 1
257 1
256 1
255 1
255 1
255 1
255 1
255 1
255 1
254 1
254 1
254 1
254 1
254 1
253 1
253 1
253 1
253 1
253 1
253 1
253 1
252 1
252 1
252 1
252 1
252 1
252 1
252 1
251 1
251 1
251 1
251 1
251 1
251 1
250 1
250 1
250 1
250 1
250 1
250 1
250 1
250 1
250 1
250 1
